<number of tasks>
21

<cycle time>
26

<task times>
1 4
2 3
3 9
4 5
5 9
6 4
7 8
8 7
9 5
10 1
11 3
12 1
13 5
14 3
15 5
16 3
17 13
18 5
19 2
20 3
21 7

<precedence relations>
1,2
1,3
2,21
3,4
4,5
4,21
5,6
5,7
6,8
7,8
7,14
8,9
9,10
9,11
9,12
9,13
10,15
11,15
12,15
13,17
13,18
14,19
15,16
15,18
16,17
17,20
18,19

<setup times forward>
1,2:1
2,3:1
2,6:1
2,7:1
2,8:2
2,10:1
2,11:2
2,12:1
2,15:2
2,16:2
2,18:1
3,2:1
3,4:1
5,6:1
5,7:1
6,2:1
6,8:1
6,14:1
6,21:1
7,2:1
7,8:1
7,14:1
7,21:1
8,2:2
8,9:2
8,14:2
8,21:2
9,10:1
9,11:2
9,12:1
10,2:1
10,11:1
10,13:1
10,14:1
10,15:1
10,21:1
11,2:2
11,10:1
11,12:1
11,13:2
11,14:2
11,21:2
12,2:1
12,11:1
12,13:1
12,14:1
12,15:1
12,21:1
13,10:1
13,11:2
13,12:1
13,15:2
13,16:2
13,18:1
14,6:1
14,8:2
14,10:1
14,11:2
14,12:1
14,15:2
14,16:2
14,18:1
15,2:2
15,13:2
15,14:2
15,18:1
15,21:2
16,2:2
16,13:2
16,14:2
16,17:2
16,18:1
16,19:2
16,21:2
17,18:1
18,2:1
18,14:1
18,16:1
18,17:1
18,19:1
18,20:1
18,21:1
19,16:2
20,18:1
21,6:1
21,7:1
21,8:2
21,10:1
21,11:2
21,12:1
21,15:2
21,16:2
21,18:1

<setup times backward>
1,1:3
2,1:4
2,2:3
2,3:4
2,4:3
2,5:3
2,6:4
2,7:4
2,8:5
2,9:3
2,10:4
2,11:5
2,12:4
2,13:3
2,14:3
2,15:5
2,16:5
2,17:3
2,18:4
2,19:3
2,20:3
3,1:3
3,2:2
3,3:3
4,1:4
4,2:3
4,3:4
4,4:3
5,1:4
5,2:3
5,3:4
5,4:3
5,5:3
5,21:3
6,1:3
6,2:2
6,3:3
6,4:2
6,5:2
6,6:3
6,7:3
6,14:2
6,21:2
7,1:3
7,2:2
7,3:3
7,4:2
7,5:2
7,6:3
7,7:3
7,21:2
8,1:2
8,2:1
8,3:2
8,4:1
8,5:1
8,6:2
8,7:2
8,8:3
8,14:1
8,21:1
9,1:4
9,2:3
9,3:4
9,4:3
9,5:3
9,6:4
9,7:4
9,8:5
9,9:3
9,14:3
9,21:3
10,1:3
10,2:2
10,3:3
10,4:2
10,5:2
10,6:3
10,7:3
10,8:4
10,9:2
10,10:3
10,11:4
10,12:3
10,13:2
10,14:2
10,21:2
11,1:2
11,2:1
11,3:2
11,4:1
11,5:1
11,6:2
11,7:2
11,8:3
11,9:1
11,10:2
11,11:3
11,12:2
11,13:1
11,14:1
11,21:1
12,1:3
12,2:2
12,3:3
12,4:2
12,5:2
12,6:3
12,7:3
12,8:4
12,9:2
12,10:3
12,11:4
12,12:3
12,13:2
12,14:2
12,21:2
13,1:4
13,2:3
13,3:4
13,4:3
13,5:3
13,6:4
13,7:4
13,8:5
13,9:3
13,10:4
13,11:5
13,12:4
13,13:3
13,14:3
13,15:5
13,16:5
13,21:3
14,1:4
14,2:3
14,3:4
14,4:3
14,5:3
14,6:4
14,7:4
14,8:5
14,9:3
14,10:4
14,11:5
14,12:4
14,13:3
14,14:3
14,15:5
14,16:5
14,17:3
14,18:4
14,20:3
14,21:3
15,1:2
15,2:1
15,3:2
15,4:1
15,5:1
15,6:2
15,7:2
15,8:3
15,9:1
15,10:2
15,11:3
15,12:2
15,13:1
15,14:1
15,15:3
15,21:1
16,1:2
16,2:1
16,3:2
16,4:1
16,5:1
16,6:2
16,7:2
16,8:3
16,9:1
16,10:2
16,11:3
16,12:2
16,13:1
16,14:1
16,15:3
16,16:3
16,18:2
16,19:1
16,21:1
17,1:4
17,2:3
17,3:4
17,4:3
17,5:3
17,6:4
17,7:4
17,8:5
17,9:3
17,10:4
17,11:5
17,12:4
17,13:3
17,14:3
17,15:5
17,16:5
17,17:3
17,18:4
17,19:3
17,21:3
18,1:3
18,2:2
18,3:3
18,4:2
18,5:2
18,6:3
18,7:3
18,8:4
18,9:2
18,10:3
18,11:4
18,12:3
18,13:2
18,14:2
18,15:4
18,16:4
18,17:2
18,18:3
18,20:2
18,21:2
19,1:4
19,2:3
19,3:4
19,4:3
19,5:3
19,6:4
19,7:4
19,8:5
19,9:3
19,10:4
19,11:5
19,12:4
19,13:3
19,14:3
19,15:5
19,16:5
19,17:3
19,18:4
19,19:3
19,20:3
19,21:3
20,1:4
20,2:3
20,3:4
20,4:3
20,5:3
20,6:4
20,7:4
20,8:5
20,9:3
20,10:4
20,11:5
20,12:4
20,13:3
20,14:3
20,15:5
20,16:5
20,17:3
20,18:4
20,19:3
20,20:3
20,21:3
21,1:4
21,2:3
21,3:4
21,4:3
21,5:3
21,6:4
21,7:4
21,8:5
21,9:3
21,10:4
21,11:5
21,12:4
21,13:3
21,14:3
21,15:5
21,16:5
21,17:3
21,18:4
21,19:3
21,20:3
21,21:3

<end>

<optimal SALBP-1 value>
5


<rand seed>
467321153

